benchmarks/bfuzz0/167447234131241452712487262693255927864.smt2
(set-logic QF_FP)
(declare-const x0 (_ FloatingPoint 11 53))
(declare-const x1 (_ FloatingPoint 11 53))
(declare-const x2 (_ FloatingPoint 11 53))
(declare-const x3 (_ FloatingPoint 11 53))
(declare-const x4 (_ FloatingPoint 11 53))
(declare-const x5 (_ FloatingPoint 11 53))
(declare-const x6 (_ FloatingPoint 11 53))
(assert (fp.lt (fp.div RNE (fp.div RNE (fp.add RNE x2 x0) (fp.sub RNE x2 x0)) (fp.div RNE (fp.add RNE x5 x3) (fp.neg x0))) (fp.mul RNE (fp.sub RNE (fp.mul RNE x3 x3) (fp.neg x0)) (fp.neg (fp.mul RNE x4 x1)))))
(assert (fp.geq (fp.neg (fp.neg (fp.neg x1))) (fp.add RNE (fp.mul RNE (fp.mul RNE x0 x0) (fp.div RNE x0 x6)) (fp.mul RNE (fp.add RNE x5 x4) (fp.div RNE x1 x6)))))
(assert (fp.eq (fp.mul RNE (fp.mul RNE (fp.mul RNE x5 x2) (fp.div RNE x6 x3)) (fp.neg (fp.sub RNE x6 x4))) (fp.sub RNE (fp.div RNE (fp.sub RNE x5 x0) (fp.mul RNE x6 x0)) (fp.div RNE (fp.sub RNE x4 x0) (fp.neg x0)))))
(check-sat)
