db/data/167447234131241452712487262693255927864.z3.out
-------------------
2500.148112030
